50 865
1 2
1 3
1 4
1 5
1 6
1 7
1 8
1 9
1 10
1 11
1 12
1 13
1 14
1 15
1 16
1 18
1 22
1 23
1 24
1 25
1 26
1 27
1 28
1 30
1 31
1 33
1 34
1 35
1 36
1 37
1 38
1 39
1 40
1 43
1 47
1 48
2 4
2 5
2 6
2 10
2 11
2 12
2 13
2 16
2 17
2 19
2 21
2 22
2 23
2 24
2 26
2 27
2 28
2 29
2 30
2 31
2 32
2 34
2 36
2 37
2 38
2 41
2 43
2 44
2 45
2 47
2 49
2 50
3 4
3 6
3 7
3 9
3 10
3 11
3 12
3 13
3 15
3 16
3 17
3 20
3 21
3 22
3 24
3 25
3 27
3 28
3 29
3 31
3 32
3 36
3 37
3 41
3 42
3 44
3 46
3 47
3 48
3 49
3 50
4 5
4 7
4 8
4 9
4 10
4 11
4 12
4 13
4 16
4 19
4 20
4 21
4 22
4 23
4 24
4 25
4 26
4 27
4 28
4 29
4 30
4 31
4 32
4 33
4 34
4 38
4 39
4 40
4 41
4 42
4 45
4 47
4 48
4 49
5 6
5 7
5 9
5 10
5 11
5 12
5 13
5 15
5 16
5 18
5 19
5 20
5 21
5 22
5 25
5 27
5 28
5 33
5 34
5 36
5 37
5 38
5 39
5 40
5 41
5 43
5 44
5 45
5 46
5 47
5 48
5 49
5 50
6 7
6 10
6 11
6 14
6 16
6 17
6 18
6 20
6 22
6 23
6 26
6 28
6 29
6 30
6 31
6 32
6 33
6 34
6 35
6 36
6 37
6 38
6 41
6 43
6 44
6 45
6 46
6 48
6 49
6 50
7 8
7 9
7 10
7 11
7 12
7 13
7 16
7 17
7 18
7 20
7 22
7 23
7 24
7 28
7 29
7 31
7 32
7 33
7 34
7 36
7 37
7 38
7 39
7 40
7 42
7 45
7 46
7 49
7 50
8 10
8 14
8 16
8 17
8 18
8 19
8 20
8 21
8 22
8 23
8 24
8 25
8 26
8 28
8 29
8 30
8 31
8 32
8 34
8 35
8 36
8 38
8 39
8 41
8 42
8 46
8 48
8 49
9 10
9 12
9 13
9 15
9 17
9 18
9 19
9 22
9 23
9 24
9 25
9 28
9 29
9 31
9 34
9 35
9 36
9 37
9 38
9 39
9 40
9 41
9 42
9 43
9 44
9 45
9 48
10 12
10 13
10 14
10 15
10 17
10 18
10 19
10 20
10 22
10 23
10 24
10 27
10 28
10 29
10 30
10 35
10 36
10 39
10 40
10 41
10 42
10 44
10 47
10 49
10 50
11 12
11 13
11 14
11 15
11 17
11 18
11 19
11 20
11 21
11 22
11 23
11 24
11 25
11 26
11 27
11 28
11 29
11 31
11 33
11 34
11 36
11 37
11 39
11 40
11 41
11 42
11 43
11 46
11 49
11 50
12 13
12 14
12 15
12 16
12 17
12 18
12 19
12 20
12 21
12 22
12 23
12 24
12 25
12 26
12 28
12 29
12 30
12 31
12 32
12 33
12 34
12 35
12 36
12 37
12 38
12 39
12 40
12 41
12 42
12 43
12 44
12 46
12 47
12 48
12 49
12 50
13 15
13 17
13 18
13 20
13 21
13 22
13 23
13 25
13 26
13 27
13 29
13 30
13 31
13 32
13 33
13 37
13 39
13 41
13 42
13 43
13 45
13 47
13 49
13 50
14 16
14 18
14 20
14 22
14 23
14 25
14 26
14 27
14 28
14 29
14 30
14 31
14 32
14 33
14 35
14 36
14 37
14 38
14 39
14 40
14 41
14 42
14 43
14 45
14 46
14 47
14 49
14 50
15 16
15 18
15 19
15 20
15 21
15 23
15 24
15 25
15 26
15 28
15 29
15 30
15 31
15 32
15 33
15 34
15 36
15 37
15 38
15 39
15 40
15 44
15 45
15 46
15 48
15 50
16 19
16 20
16 22
16 25
16 26
16 27
16 28
16 31
16 32
16 33
16 34
16 35
16 39
16 40
16 43
16 44
16 45
16 46
16 48
16 49
16 50
17 18
17 19
17 20
17 21
17 27
17 28
17 30
17 32
17 34
17 35
17 36
17 38
17 39
17 42
17 45
17 46
17 48
17 49
17 50
18 20
18 21
18 22
18 24
18 28
18 29
18 30
18 31
18 32
18 33
18 34
18 35
18 36
18 37
18 39
18 41
18 43
18 44
18 46
18 47
18 48
19 20
19 21
19 23
19 24
19 26
19 27
19 29
19 30
19 31
19 32
19 33
19 34
19 35
19 36
19 37
19 39
19 40
19 41
19 42
19 44
19 45
19 46
19 47
19 48
19 49
19 50
20 25
20 28
20 29
20 30
20 31
20 32
20 33
20 35
20 36
20 37
20 38
20 40
20 41
20 42
20 43
20 44
20 46
20 47
20 49
20 50
21 24
21 25
21 26
21 27
21 29
21 32
21 34
21 35
21 36
21 40
21 41
21 42
21 43
21 44
21 47
21 48
21 49
22 23
22 26
22 27
22 28
22 29
22 30
22 32
22 33
22 35
22 36
22 38
22 39
22 41
22 42
22 44
22 45
22 47
22 48
22 49
23 24
23 25
23 26
23 27
23 28
23 29
23 30
23 31
23 34
23 35
23 36
23 37
23 39
23 40
23 42
23 43
23 44
23 46
23 47
23 48
23 49
24 25
24 27
24 30
24 31
24 32
24 33
24 34
24 35
24 36
24 37
24 38
24 39
24 41
24 42
24 43
24 44
24 45
24 46
24 48
24 49
24 50
25 26
25 27
25 29
25 30
25 31
25 33
25 35
25 36
25 37
25 39
25 40
25 41
25 42
25 43
25 47
25 48
25 49
26 27
26 28
26 29
26 30
26 31
26 32
26 33
26 34
26 35
26 40
26 41
26 42
26 45
26 46
26 47
26 49
26 50
27 28
27 29
27 32
27 33
27 36
27 38
27 39
27 42
27 43
27 44
27 45
27 46
27 48
27 49
28 29
28 30
28 32
28 33
28 34
28 35
28 36
28 37
28 41
28 43
28 44
28 45
28 49
29 31
29 32
29 34
29 35
29 37
29 38
29 39
29 40
29 41
29 42
29 44
29 48
30 32
30 34
30 35
30 37
30 38
30 40
30 41
30 42
30 43
30 44
30 45
30 46
30 48
30 50
31 32
31 33
31 35
31 37
31 39
31 40
31 42
31 43
31 46
31 47
31 49
31 50
32 33
32 34
32 36
32 37
32 38
32 39
32 40
32 41
32 42
32 44
32 45
32 46
32 47
32 48
32 49
32 50
33 34
33 35
33 36
33 37
33 38
33 39
33 41
33 42
33 43
33 45
33 46
33 47
33 48
33 50
34 35
34 36
34 38
34 39
34 40
34 42
34 43
34 44
34 45
34 46
34 48
34 49
34 50
35 36
35 37
35 38
35 39
35 40
35 41
35 44
35 45
35 47
35 49
35 50
36 37
36 38
36 39
36 41
36 43
36 44
36 47
36 48
36 50
37 38
37 39
37 40
37 41
37 42
37 43
37 44
37 45
37 46
37 47
37 48
37 50
38 39
38 41
38 42
38 43
38 44
38 45
38 46
38 47
38 48
38 49
38 50
39 40
39 41
39 42
39 43
39 44
39 46
39 47
39 48
39 50
40 41
40 42
40 43
40 44
40 45
40 46
40 47
40 48
40 49
40 50
41 42
41 43
41 44
41 46
41 47
41 48
41 49
41 50
42 44
42 49
43 44
43 49
43 50
44 45
44 46
44 48
44 49
44 50
45 46
45 48
46 47
47 48
47 49
47 50
48 49
48 50
49 50
